# Objective value = 17
WA1n 0
WA1p 0
WA2n 1
WA2p 0
WB1n 0
WB1p 0
WB2n 0
WB2p 1
WC1n 1
WC1p 0
WD1n 1
WD1p 0
WE1n 1
WE1p 0
WF1n 1
WF1p 0
WG1n 1
WG1p 0
WH1n 0
WH1p 1
WI1n 0
WI1p 1
WJ1n 0
WJ1p 1
WK1n 0
WK1p 1
WT1n 0
WT1p 4
5 7
a 0
b 0
c 0
d 1
e 0
f 0
g 0
h 0
i 0
j 1
k 1
l 1
m 1
n 1
